
Gurobi 6.5.2 (win64) logging started 07/24/16 17:36:15


Gurobi 6.5.2 (win64) logging started 07/24/16 17:36:15

Optimize a model with 2990 rows, 781 columns and 7700 nonzeros
Coefficient statistics:
  Matrix range    [6e-08, 4e+02]
  Objective range [1e+00, 1e+00]
  Bounds range    [1e+00, 1e+00]
  RHS range       [6e-06, 1e+03]
Presolve removed 2331 rows and 97 columns
Presolve time: 0.03s
Presolved: 659 rows, 684 columns, 3134 nonzeros
Variable types: 285 continuous, 399 integer (399 binary)

Root relaxation: objective 2.155126e+01, 1737 iterations, 0.05 seconds

    Nodes    |    Current Node    |     Objective Bounds      |     Work
 Expl Unexpl |  Obj  Depth IntInf | Incumbent    BestBd   Gap | It/Node Time

     0     0   21.55126    0  120          -   21.55126      -     -    0s
H    0     0                      23.6423342   21.55126  8.84%     -    0s
     0     0   21.76831    0  122   23.64233   21.76831  7.93%     -    0s
H    0     0                      23.6172705   21.76831  7.83%     -    0s
H    0     0                      23.5761724   21.76831  7.67%     -    0s
H    0     0                      23.5539749   21.76831  7.58%     -    0s
     0     0   22.05663    0  126   23.55397   22.05663  6.36%     -    0s
H    0     0                      23.5351259   22.05663  6.28%     -    0s
     0     0   22.05663    0  126   23.53513   22.05663  6.28%     -    0s
H    0     0                      23.5105471   22.05663  6.18%     -    0s
     0     0   22.10105    0  112   23.51055   22.10105  6.00%     -    0s
H    0     0                      23.0923827   22.10105  4.29%     -    0s
     0     0   22.10105    0  113   23.09238   22.10105  4.29%     -    0s
H    0     0                      23.0374189   22.10105  4.06%     -    0s
     0     0   22.10105    0   99   23.03742   22.10105  4.06%     -    0s
     0     0   22.28590    0   88   23.03742   22.28590  3.26%     -    0s
     0     0   22.36808    0   85   23.03742   22.36808  2.91%     -    0s
     0     0   22.36808    0   85   23.03742   22.36808  2.91%     -    0s
H    0     0                      23.0100363   22.36808  2.79%     -    0s
     0     0   22.41114    0   79   23.01004   22.41114  2.60%     -    0s
     0     0   22.41114    0   79   23.01004   22.41114  2.60%     -    0s
H    0     0                      22.9860649   22.41114  2.50%     -    0s
     0     2   22.41114    0   79   22.98606   22.41114  2.50%     -    0s
H   27    18                      22.9481909   22.63914  1.35%   8.7    0s
*   35    18              28      22.8983354   22.63914  1.13%   6.9    0s
*  137    60              24      22.8829546   22.63914  1.07%   4.8    0s
*  240   102              29      22.8726437   22.63977  1.02%   4.2    0s
*  290   116              25      22.8631439   22.64719  0.94%   4.1    0s
*  867   235              22      22.8584670   22.69694  0.71%   4.6    0s
*  891   219              26      22.8500908   22.69694  0.67%   4.5    0s
* 1500   256              26      22.8451343   22.72944  0.51%   4.5    0s

Cutting planes:
  Gomory: 1
  MIR: 5

Explored 2537 nodes (13665 simplex iterations) in 0.59 seconds
Thread count was 8 (of 8 available processors)

Optimal solution found (tolerance 1.00e-04)
Best objective 2.284513433347e+01, best bound 2.284513433347e+01, gap 0.0%

Wrote requested result file 'H1\instance19\\Results19E_Sol6.lp'

